param n := 120;
param c := 10000
param : V : p w :=
   0	 367	 357
   1	 281	 271
   2	 382	 372
   3	 491	 481
   4	 261	 251
   5	 278	 268
   6	 439	 429
   7	 295	 285
   8	 296	 286
   9	 464	 454
  10	 267	 257
  11	 299	 289
  12	 408	 398
  13	 278	 268
  14	 344	 334
  15	 392	 382
  16	 274	 264
  17	 364	 354
  18	 437	 427
  19	 261	 251
  20	 332	 322
  21	 486	 476
  22	 261	 251
  23	 283	 273
  24	 374	 364
  25	 286	 276
  26	 370	 360
  27	 416	 406
  28	 300	 290
  29	 314	 304
  30	 361	 351
  31	 290	 280
  32	 379	 369
  33	 428	 418
  34	 280	 270
  35	 322	 312
  36	 385	 375
  37	 319	 309
  38	 326	 316
  39	 421	 411
  40	 298	 288
  41	 311	 301
  42	 434	 424
  43	 271	 261
  44	 325	 315
  45	 472	 462
  46	 267	 257
  47	 291	 281
  48	 421	 411
  49	 294	 284
  50	 315	 305
  51	 453	 443
  52	 278	 268
  53	 299	 289
  54	 380	 370
  55	 294	 284
  56	 356	 346
  57	 470	 460
  58	 261	 251
  59	 299	 289
  60	 407	 397
  61	 267	 257
  62	 356	 346
  63	 389	 379
  64	 306	 296
  65	 335	 325
  66	 457	 447
  67	 279	 269
  68	 294	 284
  69	 471	 461
  70	 269	 259
  71	 290	 280
  72	 504	 494
  73	 261	 251
  74	 265	 255
  75	 493	 483
  76	 260	 250
  77	 277	 267
  78	 485	 475
  79	 268	 258
  80	 277	 267
  81	 412	 402
  82	 287	 277
  83	 331	 321
  84	 405	 395
  85	 279	 269
  86	 346	 336
  87	 446	 436
  88	 265	 255
  89	 319	 309
  90	 428	 418
  91	 295	 285
  92	 307	 297
  93	 418	 408
  94	 276	 266
  95	 336	 326
  96	 368	 358
  97	 274	 264
  98	 388	 378
  99	 481	 471
 100	 271	 261
 101	 278	 268
 102	 470	 460
 103	 260	 250
 104	 300	 290
 105	 378	 368
 106	 325	 315
 107	 327	 317
 108	 440	 430
 109	 279	 269
 110	 311	 301
 111	 487	 477
 112	 262	 252
 113	 281	 271
 114	 459	 449
 115	 273	 263
 116	 298	 288
 117	 493	 483
 118	 264	 254
 119	 273	 263
;

set E :=
   0	  12
   0	  56
   0	  58
   0	  65
   0	  69
   0	  80
   0	  89
   0	 108
   0	 111
   0	 116
   1	  11
   1	  20
   1	  35
   1	  38
   1	  39
   1	  43
   1	  56
   1	  62
   1	  81
   1	  83
   1	  91
   1	  92
   1	  99
   2	  13
   2	  35
   2	  48
   2	  49
   2	  51
   2	  60
   2	  89
   2	  96
   2	 108
   3	  20
   3	  28
   3	  33
   3	  48
   3	  49
   3	  53
   3	  67
   3	  68
   3	  74
   3	  78
   3	  84
   3	  85
   3	  87
   4	  21
   4	  22
   4	  30
   4	  49
   4	  58
   4	  75
   4	  76
   4	  86
   4	  88
   4	  95
   4	 101
   4	 105
   4	 111
   4	 115
   5	  12
   5	  27
   5	  41
   5	  43
   5	  49
   5	  52
   5	  60
   5	  70
   5	  75
   5	  94
   6	   7
   6	  11
   6	  14
   6	  19
   6	  22
   6	  25
   6	  27
   6	  36
   6	  38
   6	  42
   6	  44
   6	  45
   6	  49
   6	  65
   6	  66
   6	  72
   6	  73
   6	  98
   6	  99
   6	 107
   6	 119
   7	  10
   7	  17
   7	  28
   7	  39
   7	  48
   7	  56
   7	  59
   7	  62
   7	  70
   7	  74
   7	  76
   7	  77
   7	  82
   7	  83
   7	  84
   7	  86
   7	  90
   7	  91
   8	  10
   8	  18
   8	  29
   8	  36
   8	  38
   8	  39
   8	  44
   8	  49
   8	  50
   8	  57
   8	  67
   8	  72
   8	  84
   8	  91
   8	 104
   8	 109
   8	 111
   8	 116
   8	 117
   8	 118
   9	  21
   9	  22
   9	  30
   9	  31
   9	  45
   9	  49
   9	  50
   9	  53
   9	  57
   9	  62
   9	  65
   9	  67
   9	  77
   9	  79
   9	  88
   9	  89
   9	  94
   9	  99
  10	  14
  10	  23
  10	  45
  10	  47
  10	  52
  10	  57
  10	  70
  10	  71
  10	  73
  10	  88
  10	  92
  10	  95
  10	  96
  10	 111
  11	  15
  11	  17
  11	  35
  11	  41
  11	  70
  11	  80
  11	  94
  11	 107
  11	 109
  11	 110
  12	  28
  12	  36
  12	  37
  12	  57
  12	  62
  13	  22
  13	  23
  13	  24
  13	  28
  13	  43
  13	  44
  13	  55
  13	  59
  13	  75
  13	  81
  13	  86
  13	 111
  13	 113
  13	 118
  14	  37
  14	  39
  14	  43
  14	  46
  14	  47
  14	  51
  14	  68
  14	  88
  14	  96
  15	  36
  15	  43
  15	  52
  15	  56
  15	  63
  15	  74
  15	 109
  16	  20
  16	  25
  16	  41
  16	  55
  16	  58
  16	  62
  16	  87
  16	  90
  16	 109
  16	 113
  16	 117
  17	  25
  17	  28
  17	  30
  17	  31
  17	  45
  17	  51
  17	  52
  17	  66
  17	  72
  17	  76
  17	  77
  17	  85
  17	  88
  17	  90
  17	 100
  17	 114
  17	 119
  18	  41
  18	  68
  18	  79
  18	  83
  18	  90
  18	  92
  18	 110
  19	  54
  19	  62
  19	  70
  19	  85
  19	  89
  19	  92
  19	  93
  19	 104
  19	 110
  19	 114
  19	 116
  20	  25
  20	  55
  20	  64
  20	  66
  20	  81
  20	  91
  20	  92
  20	  97
  20	  99
  20	 100
  20	 117
  21	  29
  21	  33
  21	  42
  21	  50
  21	  55
  21	  78
  22	  23
  22	  25
  22	  36
  22	  38
  22	  60
  22	  68
  22	  92
  22	 107
  22	 112
  22	 114
  22	 116
  22	 119
  23	  24
  23	  25
  23	  31
  23	  50
  23	  68
  23	  83
  23	  88
  23	  89
  23	  99
  23	 101
  24	  75
  24	  93
  24	  99
  24	 115
  25	  48
  25	  57
  25	  62
  25	  88
  26	  66
  26	  79
  26	  99
  26	 111
  26	 116
  27	  34
  27	  44
  27	  45
  27	  51
  27	  81
  27	  86
  27	  88
  28	  31
  28	  33
  28	  34
  28	  37
  28	  43
  28	  51
  28	  56
  28	  77
  28	  82
  28	  87
  28	  88
  28	 104
  28	 110
  28	 116
  29	  37
  29	  51
  29	  52
  29	  85
  29	  90
  29	  97
  29	 102
  29	 118
  30	  38
  30	  56
  30	  73
  30	  75
  30	  85
  30	  87
  30	  96
  30	 112
  31	  47
  31	  68
  31	  77
  31	  90
  31	  96
  31	 102
  32	  33
  32	  35
  32	  45
  32	  52
  32	  54
  32	  56
  32	  60
  32	  83
  32	 106
  32	 110
  32	 116
  33	  36
  33	  39
  33	  47
  33	  54
  33	  77
  33	 105
  33	 112
  34	  35
  34	  50
  34	  59
  34	  63
  34	  87
  34	  89
  34	 109
  34	 111
  34	 114
  35	  55
  35	  63
  35	  71
  35	  84
  35	  89
  35	 111
  36	  50
  36	  78
  36	  80
  36	  82
  36	  83
  36	  88
  36	  91
  37	  45
  37	  48
  37	  67
  37	  80
  37	  82
  37	  92
  37	  97
  37	 117
  38	  39
  38	  41
  38	  48
  38	  49
  38	  59
  38	  65
  38	  86
  38	  89
  38	 110
  38	 116
  39	  41
  39	  51
  39	  58
  39	  64
  39	  69
  39	  75
  39	  76
  39	  77
  39	  88
  39	 112
  39	 117
  40	  63
  40	  64
  40	  71
  40	  83
  40	  93
  41	  50
  41	  57
  41	  60
  41	  62
  41	  69
  41	  70
  41	  76
  41	  83
  41	  96
  41	  97
  41	 116
  42	  44
  42	  91
  42	  96
  42	 101
  43	  44
  43	  53
  43	  57
  43	  64
  43	  87
  43	  90
  43	  91
  43	 113
  43	 119
  44	  53
  44	  86
  44	  87
  44	 105
  44	 106
  44	 114
  44	 116
  45	  50
  45	  72
  45	  78
  45	  95
  45	  96
  45	 103
  45	 117
  46	  67
  46	  78
  46	  79
  46	  91
  46	  95
  46	 102
  46	 104
  47	  49
  47	  61
  47	  69
  47	  77
  47	  79
  47	  90
  48	  49
  48	  53
  48	  57
  48	  71
  48	  73
  48	  80
  48	  87
  48	 100
  48	 107
  48	 118
  48	 119
  49	  50
  49	  53
  49	  54
  49	  59
  49	  65
  49	  78
  49	  82
  49	  85
  50	  82
  50	  91
  50	  99
  50	 102
  50	 109
  50	 118
  51	  70
  51	  73
  51	  87
  51	 100
  51	 113
  52	  54
  52	  55
  52	  63
  52	 113
  52	 119
  53	  61
  53	  66
  53	  71
  53	  80
  53	  85
  53	 110
  53	 117
  54	  58
  54	  77
  54	  89
  54	  99
  54	 110
  54	 116
  55	  59
  55	  66
  55	  69
  55	  93
  55	 103
  55	 113
  55	 119
  56	  82
  56	  85
  56	 117
  56	 119
  57	  71
  57	  75
  57	  79
  57	  90
  57	 100
  57	 105
  57	 108
  57	 119
  58	  75
  58	  95
  58	  99
  58	 101
  58	 105
  58	 106
  58	 115
  59	  80
  59	 111
  60	  75
  60	  91
  60	  93
  60	  95
  60	 105
  60	 111
  61	  63
  61	  87
  61	  94
  61	 111
  61	 115
  62	  70
  62	  75
  62	  93
  62	  97
  62	  99
  62	 107
  63	  93
  63	 118
  63	 119
  64	  77
  64	  87
  64	  92
  64	  93
  64	  94
  64	  96
  64	  97
  64	 107
  64	 108
  65	  72
  65	  88
  65	  90
  65	  99
  65	 106
  65	 118
  66	  97
  67	  70
  67	  77
  67	  84
  67	  93
  67	 116
  68	  72
  68	  81
  68	  83
  68	  84
  68	  94
  68	 112
  68	 116
  68	 119
  69	  90
  69	  99
  70	  80
  70	  85
  70	  92
  70	  95
  70	 109
  70	 116
  71	  80
  72	  79
  72	  82
  72	  96
  72	 107
  72	 112
  73	  76
  73	  77
  73	  96
  74	  97
  74	 100
  74	 101
  74	 105
  74	 112
  75	  86
  75	  92
  75	 101
  75	 107
  75	 108
  75	 111
  75	 117
  76	  84
  76	  93
  76	 102
  76	 114
  77	 102
  77	 117
  78	  91
  78	  94
  78	  99
  79	  87
  79	  94
  79	  97
  79	 105
  80	  89
  80	  99
  81	  88
  81	 102
  81	 108
  81	 115
  82	  85
  82	  98
  82	 115
  83	  92
  83	  93
  83	  97
  83	 101
  83	 103
  83	 108
  83	 112
  84	  87
  84	  93
  84	 106
  84	 110
  85	  87
  85	  88
  85	  94
  85	  95
  85	 100
  85	 102
  85	 103
  85	 107
  86	 117
  87	 107
  87	 111
  88	  91
  88	  97
  88	  99
  88	 104
  88	 107
  88	 119
  89	  92
  89	  93
  89	 102
  89	 106
  89	 109
  89	 113
  89	 118
  90	  98
  90	 108
  90	 116
  91	  93
  91	 102
  91	 105
  93	 117
  94	  99
  94	 110
  94	 113
  95	  99
  95	 105
  95	 106
  95	 108
  95	 112
  97	 109
  97	 118
  98	 118
  99	 102
  99	 106
  99	 115
 100	 106
 100	 112
 100	 117
 101	 112
 103	 118
 104	 119
 105	 106
 105	 111
 105	 119
 107	 119
 108	 112
 108	 118
 108	 119
 109	 111
 109	 113
 110	 118
 111	 118
;
